20	5
0	3	3	2	1
1	1	16
2	2	18	21
3	1	10
4	2	12	19
5	1	8
6	1	7
7	1	20
8	1	11
9	1	6
10	1	12
11	1	13
12	1	15
13	1	9
14	0
15	0
16	1	14
17	0
18	0
19	1	15
20	1	21
21	0
0	0	0	0	0	0	0
1	7	0	0	3	3	0
2	9	2	1	1	0	3
3	5	0	0	4	0	5
4	10	0	4	0	0	0
5	4	4	0	5	0	0
6	3	0	4	0	0	5
7	6	0	5	2	0	0
8	6	3	0	0	0	0
9	7	5	1	4	1	2
10	2	0	4	3	5	1
11	2	4	0	1	3	5
12	9	5	0	0	0	5
13	10	4	0	0	0	4
14	10	0	2	0	0	0
15	10	4	0	5	0	3
16	5	1	0	4	4	0
17	8	0	5	0	0	3
18	2	2	0	0	3	0
19	1	0	3	1	0	5
20	3	4	1	0	0	3
21	0	0	0	0	0	0
5	5	5	5	5
